c
c Satisfiable formula
c
p cnf 11 12
-3 -7 -14 0
4 -10 19  0
2 9 17 0
5 15 -20 0
1 11 -16 0
-6 -18 -11 0
9 8 -19 0
-12 -15 -13 0
-3 13 7 10 0
6 -10 14 0
-8 11 -15 -16 0
6 18 0
-3 -10 4 0
10 -19 -6 0
7 15 -9 -18 0
1 -8 -12 0
-10 2 13 0
-9 -14 5 0
16 17 -20 0
19 8 -6 0
